c nIsolatedPIs 0
c maxPI 32
p cnf 216 553
c gate 33 15 31 0
15 -33 0
31 -33 0
-15 -31 33 0
c gate 34 -15 -31 0
-15 -34 0
-31 -34 0
15 31 34 0
c gate 35 14 30 0
14 -35 0
30 -35 0
-14 -30 35 0
c gate 36 -14 -30 0
-14 -36 0
-30 -36 0
14 30 36 0
c gate 37 13 29 0
13 -37 0
29 -37 0
-13 -29 37 0
c gate 38 -13 -29 0
-13 -38 0
-29 -38 0
13 29 38 0
c gate 39 -37 -38 0
-37 -39 0
-38 -39 0
37 38 39 0
c gate 40 12 28 0
12 -40 0
28 -40 0
-12 -28 40 0
c gate 41 -12 -28 0
-12 -41 0
-28 -41 0
12 28 41 0
c gate 42 -40 -41 0
-40 -42 0
-41 -42 0
40 41 42 0
c gate 43 11 27 0
11 -43 0
27 -43 0
-11 -27 43 0
c gate 44 -11 -27 0
-11 -44 0
-27 -44 0
11 27 44 0
c gate 45 -43 -44 0
-43 -45 0
-44 -45 0
43 44 45 0
c gate 46 10 26 0
10 -46 0
26 -46 0
-10 -26 46 0
c gate 47 9 25 0
9 -47 0
25 -47 0
-9 -25 47 0
c gate 48 -8 -24 0
-8 -48 0
-24 -48 0
8 24 48 0
c gate 49 8 24 0
8 -49 0
24 -49 0
-8 -24 49 0
c gate 50 -48 -49 0
-48 -50 0
-49 -50 0
48 49 50 0
c gate 51 7 23 0
7 -51 0
23 -51 0
-7 -23 51 0
c gate 52 -7 -23 0
-7 -52 0
-23 -52 0
7 23 52 0
c gate 53 6 22 0
6 -53 0
22 -53 0
-6 -22 53 0
c gate 54 -6 -22 0
-6 -54 0
-22 -54 0
6 22 54 0
c gate 55 -5 -21 0
-5 -55 0
-21 -55 0
5 21 55 0
c gate 56 -54 -55 0
-54 -56 0
-55 -56 0
54 55 56 0
c gate 57 5 21 0
5 -57 0
21 -57 0
-5 -21 57 0
c gate 58 -4 -20 0
-4 -58 0
-20 -58 0
4 20 58 0
c gate 59 4 20 0
4 -59 0
20 -59 0
-4 -20 59 0
c gate 60 -58 -59 0
-58 -60 0
-59 -60 0
58 59 60 0
c gate 61 3 19 0
3 -61 0
19 -61 0
-3 -19 61 0
c gate 62 2 18 0
2 -62 0
18 -62 0
-2 -18 62 0
c gate 63 -2 -18 0
-2 -63 0
-18 -63 0
2 18 63 0
c gate 64 1 17 0
1 -64 0
17 -64 0
-1 -17 64 0
c gate 65 -63 64 0
-63 -65 0
64 -65 0
63 -64 65 0
c gate 66 -62 -65 0
-62 -66 0
-65 -66 0
62 65 66 0
c gate 67 -3 -19 0
-3 -67 0
-19 -67 0
3 19 67 0
c gate 68 -66 -67 0
-66 -68 0
-67 -68 0
66 67 68 0
c gate 69 -61 -68 0
-61 -69 0
-68 -69 0
61 68 69 0
c gate 70 60 69 0
60 -70 0
69 -70 0
-60 -69 70 0
c gate 71 -58 -70 0
-58 -71 0
-70 -71 0
58 70 71 0
c gate 72 -57 -71 0
-57 -72 0
-71 -72 0
57 71 72 0
c gate 73 56 -72 0
56 -73 0
-72 -73 0
-56 72 73 0
c gate 74 -53 -73 0
-53 -74 0
-73 -74 0
53 73 74 0
c gate 75 -52 -74 0
-52 -75 0
-74 -75 0
52 74 75 0
c gate 76 -51 -75 0
-51 -76 0
-75 -76 0
51 75 76 0
c gate 77 50 76 0
50 -77 0
76 -77 0
-50 -76 77 0
c gate 78 -48 -77 0
-48 -78 0
-77 -78 0
48 77 78 0
c gate 79 -47 -78 0
-47 -79 0
-78 -79 0
47 78 79 0
c gate 80 -10 -26 0
-10 -80 0
-26 -80 0
10 26 80 0
c gate 81 -9 -25 0
-9 -81 0
-25 -81 0
9 25 81 0
c gate 82 -80 -81 0
-80 -82 0
-81 -82 0
80 81 82 0
c gate 83 -79 82 0
-79 -83 0
82 -83 0
79 -82 83 0
c gate 84 -46 -83 0
-46 -84 0
-83 -84 0
46 83 84 0
c gate 85 45 -84 0
45 -85 0
-84 -85 0
-45 84 85 0
c gate 86 -43 -85 0
-43 -86 0
-85 -86 0
43 85 86 0
c gate 87 42 -86 0
42 -87 0
-86 -87 0
-42 86 87 0
c gate 88 -40 -87 0
-40 -88 0
-87 -88 0
40 87 88 0
c gate 89 39 -88 0
39 -89 0
-88 -89 0
-39 88 89 0
c gate 90 -37 -89 0
-37 -90 0
-89 -90 0
37 89 90 0
c gate 91 -36 -90 0
-36 -91 0
-90 -91 0
36 90 91 0
c gate 92 -35 -91 0
-35 -92 0
-91 -92 0
35 91 92 0
c gate 93 -34 -92 0
-34 -93 0
-92 -93 0
34 92 93 0
c gate 94 -33 -93 0
-33 -94 0
-93 -94 0
33 93 94 0
c gate 95 -16 -32 0
-16 -95 0
-32 -95 0
16 32 95 0
c gate 96 16 32 0
16 -96 0
32 -96 0
-16 -32 96 0
c gate 97 -95 -96 0
-95 -97 0
-96 -97 0
95 96 97 0
c gate 98 94 -97 0
94 -98 0
-97 -98 0
-94 97 98 0
c gate 99 -94 97 0
-94 -99 0
97 -99 0
94 -97 99 0
c gate 100 -98 -99 0
-98 -100 0
-99 -100 0
98 99 100 0
c gate 101 18 -66 0
18 -101 0
-66 -101 0
-18 66 101 0
c gate 102 -61 -101 0
-61 -102 0
-101 -102 0
61 101 102 0
c gate 103 60 -102 0
60 -103 0
-102 -103 0
-60 102 103 0
c gate 104 -59 -103 0
-59 -104 0
-103 -104 0
59 103 104 0
c gate 105 -57 104 0
-57 -105 0
104 -105 0
57 -104 105 0
c gate 106 56 -105 0
56 -106 0
-105 -106 0
-56 105 106 0
c gate 107 -53 -106 0
-53 -107 0
-106 -107 0
53 106 107 0
c gate 108 -52 -107 0
-52 -108 0
-107 -108 0
52 107 108 0
c gate 109 -51 -108 0
-51 -109 0
-108 -109 0
51 108 109 0
c gate 110 50 -109 0
50 -110 0
-109 -110 0
-50 109 110 0
c gate 111 -49 -110 0
-49 -111 0
-110 -111 0
49 110 111 0
c gate 112 -47 -81 0
-47 -112 0
-81 -112 0
47 81 112 0
c gate 113 -111 112 0
-111 -113 0
112 -113 0
111 -112 113 0
c gate 114 -46 -47 0
-46 -114 0
-47 -114 0
46 47 114 0
c gate 115 -113 114 0
-113 -115 0
114 -115 0
113 -114 115 0
c gate 116 -44 -80 0
-44 -116 0
-80 -116 0
44 80 116 0
c gate 117 -115 116 0
-115 -117 0
116 -117 0
115 -116 117 0
c gate 118 -43 -117 0
-43 -118 0
-117 -118 0
43 117 118 0
c gate 119 42 -118 0
42 -119 0
-118 -119 0
-42 118 119 0
c gate 120 -40 -119 0
-40 -120 0
-119 -120 0
40 119 120 0
c gate 121 39 -120 0
39 -121 0
-120 -121 0
-39 120 121 0
c gate 122 -37 -121 0
-37 -122 0
-121 -122 0
37 121 122 0
c gate 123 -36 -122 0
-36 -123 0
-122 -123 0
36 122 123 0
c gate 124 -33 -35 0
-33 -124 0
-35 -124 0
33 35 124 0
c gate 125 -123 124 0
-123 -125 0
124 -125 0
123 -124 125 0
c gate 126 -34 -125 0
-34 -126 0
-125 -126 0
34 125 126 0
c gate 127 -97 126 0
-97 -127 0
126 -127 0
97 -126 127 0
c gate 128 97 -126 0
97 -128 0
-126 -128 0
-97 126 128 0
c gate 129 -127 -128 0
-127 -129 0
-128 -129 0
127 128 129 0
c gate 130 -100 -129 0
-100 -130 0
-129 -130 0
100 129 130 0
c gate 131 -39 120 0
-39 -131 0
120 -131 0
39 -120 131 0
c gate 132 -121 -131 0
-121 -132 0
-131 -132 0
121 131 132 0
c gate 133 -39 88 0
-39 -133 0
88 -133 0
39 -88 133 0
c gate 134 -89 -133 0
-89 -134 0
-133 -134 0
89 133 134 0
c gate 135 -132 134 0
-132 -135 0
134 -135 0
132 -134 135 0
c gate 136 132 -134 0
132 -136 0
-134 -136 0
-132 134 136 0
c gate 137 -135 -136 0
-135 -137 0
-136 -137 0
135 136 137 0
c gate 138 39 -137 0
39 -138 0
-137 -138 0
-39 137 138 0
c gate 139 -135 -138 0
-135 -139 0
-138 -139 0
135 138 139 0
c gate 140 -33 -34 0
-33 -140 0
-34 -140 0
33 34 140 0
c gate 141 92 -140 0
92 -141 0
-140 -141 0
-92 140 141 0
c gate 142 -35 -36 0
-35 -142 0
-36 -142 0
35 36 142 0
c gate 143 -90 140 0
-90 -143 0
140 -143 0
90 -140 143 0
c gate 144 142 -143 0
142 -144 0
-143 -144 0
-142 143 144 0
c gate 145 -141 144 0
-141 -145 0
144 -145 0
141 -144 145 0
c gate 146 122 -142 0
122 -146 0
-142 -146 0
-122 142 146 0
c gate 147 138 -146 0
138 -147 0
-146 -147 0
-138 146 147 0
c gate 148 -145 147 0
-145 -148 0
147 -148 0
145 -147 148 0
c gate 149 -139 -148 0
-139 -149 0
-148 -149 0
139 148 149 0
c gate 150 -130 149 0
-130 -150 0
149 -150 0
130 -149 150 0
c gate 151 -42 86 0
-42 -151 0
86 -151 0
42 -86 151 0
c gate 152 -87 -151 0
-87 -152 0
-151 -152 0
87 151 152 0
c gate 153 -42 118 0
-42 -153 0
118 -153 0
42 -118 153 0
c gate 154 -119 -153 0
-119 -154 0
-153 -154 0
119 153 154 0
c gate 155 -152 154 0
-152 -155 0
154 -155 0
152 -154 155 0
c gate 156 78 -111 0
78 -156 0
-111 -156 0
-78 111 156 0
c gate 157 -78 -113 0
-78 -157 0
-113 -157 0
78 113 157 0
c gate 158 -156 -157 0
-156 -158 0
-157 -158 0
156 157 158 0
c gate 159 -45 84 0
-45 -159 0
84 -159 0
45 -84 159 0
c gate 160 -46 -80 0
-46 -160 0
-80 -160 0
46 80 160 0
c gate 161 -85 160 0
-85 -161 0
160 -161 0
85 -160 161 0
c gate 162 -159 161 0
-159 -162 0
161 -162 0
159 -161 162 0
c gate 163 111 -160 0
111 -163 0
-160 -163 0
-111 160 163 0
c gate 164 112 -163 0
112 -164 0
-163 -164 0
-112 163 164 0
c gate 165 -162 164 0
-162 -165 0
164 -165 0
162 -164 165 0
c gate 166 158 -165 0
158 -166 0
-165 -166 0
-158 165 166 0
c gate 167 -155 166 0
-155 -167 0
166 -167 0
155 -166 167 0
c gate 168 152 -154 0
152 -168 0
-154 -168 0
-152 154 168 0
c gate 169 -50 109 0
-50 -169 0
109 -169 0
50 -109 169 0
c gate 170 -110 -169 0
-110 -170 0
-169 -170 0
110 169 170 0
c gate 171 -50 -76 0
-50 -171 0
-76 -171 0
50 76 171 0
c gate 172 -77 -171 0
-77 -172 0
-171 -172 0
77 171 172 0
c gate 173 -170 -172 0
-170 -173 0
-172 -173 0
170 172 173 0
c gate 174 -73 173 0
-73 -174 0
173 -174 0
73 -173 174 0
c gate 175 -158 -174 0
-158 -175 0
-174 -175 0
158 174 175 0
c gate 176 -168 -175 0
-168 -176 0
-175 -176 0
168 175 176 0
c gate 177 -167 176 0
-167 -177 0
176 -177 0
167 -176 177 0
c gate 178 137 -177 0
137 -178 0
-177 -178 0
-137 177 178 0
c gate 179 100 129 0
100 -179 0
129 -179 0
-100 -129 179 0
c gate 180 -178 -179 0
-178 -180 0
-179 -180 0
178 179 180 0
c gate 181 -150 180 0
-150 -181 0
180 -181 0
150 -180 181 0
c gate 182 170 172 0
170 -182 0
172 -182 0
-170 -172 182 0
c gate 183 -62 65 0
-62 -183 0
65 -183 0
62 -65 183 0
c gate 184 2 183 0
2 -184 0
183 -184 0
-2 -183 184 0
c gate 185 -60 -69 0
-60 -185 0
-69 -185 0
60 69 185 0
c gate 186 -70 -185 0
-70 -186 0
-185 -186 0
70 185 186 0
c gate 187 -60 102 0
-60 -187 0
102 -187 0
60 -102 187 0
c gate 188 -103 -187 0
-103 -188 0
-187 -188 0
103 187 188 0
c gate 189 -186 -188 0
-186 -189 0
-188 -189 0
186 188 189 0
c gate 190 186 188 0
186 -190 0
188 -190 0
-186 -188 190 0
c gate 191 -189 -190 0
-189 -191 0
-190 -191 0
189 190 191 0
c gate 192 60 -191 0
60 -192 0
-191 -192 0
-60 191 192 0
c gate 193 -53 -57 0
-53 -193 0
-57 -193 0
53 57 193 0
c gate 194 56 193 0
56 -194 0
193 -194 0
-56 -193 194 0
c gate 195 192 194 0
192 -195 0
194 -195 0
-192 -194 195 0
c gate 196 -184 -195 0
-184 -196 0
-195 -196 0
184 195 196 0
c gate 197 -51 -52 0
-51 -197 0
-52 -197 0
51 52 197 0
c gate 198 74 197 0
74 -198 0
197 -198 0
-74 -197 198 0
c gate 199 73 -197 0
73 -199 0
-197 -199 0
-73 197 199 0
c gate 200 195 -199 0
195 -200 0
-199 -200 0
-195 199 200 0
c gate 201 -198 200 0
-198 -201 0
200 -201 0
198 -200 201 0
c gate 202 -196 -201 0
-196 -202 0
-201 -202 0
196 201 202 0
c gate 203 -182 202 0
-182 -203 0
202 -203 0
182 -202 203 0
c gate 204 -173 -203 0
-173 -204 0
-203 -204 0
173 203 204 0
c gate 205 -158 204 0
-158 -205 0
204 -205 0
158 -204 205 0
c gate 206 -181 -205 0
-181 -206 0
-205 -206 0
181 205 206 0
c gate 207 -61 -67 0
-61 -207 0
-67 -207 0
61 67 207 0
c gate 208 184 -207 0
184 -208 0
-207 -208 0
-184 207 208 0
c gate 209 -189 -208 0
-189 -209 0
-208 -209 0
189 208 209 0
c gate 210 -206 -209 0
-206 -210 0
-209 -210 0
206 209 210 0
c gate 211 183 -208 0
183 -211 0
-208 -211 0
-183 208 211 0
c gate 212 -190 -211 0
-190 -212 0
-211 -212 0
190 211 212 0
c gate 213 -189 -212 0
-189 -213 0
-212 -213 0
189 212 213 0
c gate 214 206 213 0
206 -214 0
213 -214 0
-206 -213 214 0
c gate 215 192 -214 0
192 -215 0
-214 -215 0
-192 214 215 0
c gate 216 -210 215 0
-210 -216 0
215 -216 0
210 -215 216 0
c PO
216 0
